Log file: C:\Users\user\robust_bilevel_network_games\true_dro\log_sioux_falls_S10_20260416_1845919.txt
Started: 2026-04-16T18:45:21.933


======================================================================
INSTANCE: sioux_falls (S=10, ε̂=0.7, ε̃=0.7)
======================================================================
============================================================
Sioux-Falls Network Summary
============================================================
Number of nodes: 24
Number of arcs (incl. dummy): 77
Number of regular arcs: 76
Number of interdictable arcs: 66
Source node: s (1)
Sink node: t (24)
Node-incidence matrix N dimensions: (23, 77)

Sparsity Information:
  Arc-arc adjacency: 864 / 5776 pairs (85.0% sparse)
  Node-arc incidence: 148 / 1748 pairs (91.5% sparse)

First 15 arcs:
  Arc 1: ("10", "11") [Interdictable: ✓]
  Arc 2: ("10", "15") [Interdictable: ✓]
  Arc 3: ("10", "16") [Interdictable: ✓]
  Arc 4: ("10", "17") [Interdictable: ✓]
  Arc 5: ("10", "9") [Interdictable: ✓]
  Arc 6: ("11", "10") [Interdictable: ✓]
  Arc 7: ("11", "12") [Interdictable: ✓]
  Arc 8: ("11", "14") [Interdictable: ✓]
  Arc 9: ("11", "4") [Interdictable: ✓]
  Arc 10: ("12", "11") [Interdictable: ✓]
  Arc 11: ("12", "13") [Interdictable: ✓]
  Arc 12: ("12", "3") [Interdictable: ✓]
  Arc 13: ("13", "12") [Interdictable: ✓]
  Arc 14: ("13", "t") [Interdictable: ✗]
  Arc 15: ("14", "11") [Interdictable: ✓]
============================================================
  |A|=76, S=10, γ=2, w=1.3905, λU=2.0
  ε̂=0.7, ε̃=0.7

----------------------------------------
VI-only OMP diagnostic (no Benders cuts)
Set parameter Username
Set parameter LicenseID to value 2742039
Academic license - for non-commercial use only - expires 2026-11-20
Set parameter OutputFlag to value 1
Set parameter OutputFlag to value 1
Gurobi Optimizer version 13.0.0 build v13.0.0rc1 (win64 - Windows 10.0 (19045.2))

CPU model: AMD Ryzen 9 5900X 12-Core Processor, instruction set [SSE2|AVX|AVX2]
Thread count: 12 physical cores, 24 logical processors, using up to 24 threads

Optimize a model with 3062 rows, 1827 columns and 9077 nonzeros (Min)
Model fingerprint: 0x2fc90860
Model has 1 linear objective coefficients
Variable types: 1751 continuous, 76 integer (76 binary)
Coefficient statistics:
  Matrix range     [3e-02, 1e+00]
  Objective range  [1e+00, 1e+00]
  Bounds range     [1e+00, 1e+04]
  RHS range        [1e+00, 2e+00]
Found heuristic solution: objective 30.0432672
Presolve removed 1141 rows and 283 columns
Presolve time: 0.00s
Presolved: 1921 rows, 1544 columns, 4524 nonzeros
Found heuristic solution: objective 23.7526107
Variable types: 1480 continuous, 64 integer (64 binary)

Root relaxation: objective 2.255525e+00, 619 iterations, 0.02 seconds (0.01 work units)

    Nodes    |    Current Node    |     Objective Bounds      |     Work
 Expl Unexpl |  Obj  Depth IntInf | Incumbent    BestBd   Gap | It/Node Time

*    0     0               0       2.2555248    2.25552  0.00%     -    0s

Explored 1 nodes (619 simplex iterations) in 0.02 seconds (0.02 work units)
Thread count was 24 (of 24 available processors)

Solution count 3: 2.25552 23.7526 30.0433 

Optimal solution found (tolerance 1.00e-04)
Best objective 2.255524801741e+00, best bound 2.255524801741e+00, gap 0.0000%

User-callback calls 37, time in user-callback 0.00 sec
  VI-only LB = 2.255525, x = [0, 0, 0, 0, 0, 0, 0, 0, 0, 0, 0, 0, 0, 0, 0, 0, 0, 0, 0, 0, 0, 0, 0, 0, 0, 0, 0, 0, 0, 0, 0, 0, 0, 0, 0, 0, 0, 0, 0, 0, 0, 0, 0, 0, 0, 0, 0, 0, 0, 0, 1, 1, 0, 0, 0, 0, 0, 0, 0, 0, 0, 0, 0, 0, 0, 0, 0, 0, 0, 0, 0, 0, 0, 0, 0, 0]
----------------------------------------

======================================================================
1. True-DRO Benders (bilinear subproblem via Gurobi NonConvex=2)
======================================================================
Set parameter Username
Set parameter LicenseID to value 2742039
Academic license - for non-commercial use only - expires 2026-11-20
Set parameter Username
Set parameter LicenseID to value 2742039
Academic license - for non-commercial use only - expires 2026-11-20
Set parameter DualReductions to value 0
Set parameter NonConvex to value 2
Set parameter LogFile to value "global_miqcp.log"
Set parameter Username
Set parameter LicenseID to value 2742039
Academic license - for non-commercial use only - expires 2026-11-20
Set parameter DualReductions to value 0
Set parameter NonConvex to value 2
Set parameter OptimalityTarget to value 1
Set parameter Username
Set parameter LicenseID to value 2742039
Academic license - for non-commercial use only - expires 2026-11-20
Set parameter Username
Set parameter LicenseID to value 2742039
Academic license - for non-commercial use only - expires 2026-11-20

=== True-DRO Benders iter 1 ===
  OMP: t₀=2.255525, UB=Inf, gap=NaN, x=[0, 0, 0, 0, 0, 0, 0, 0, 0, 0, 0, 0, 0, 0, 0, 0, 0, 0, 0, 0, 0, 0, 0, 0, 0, 0, 0, 0, 0, 0, 0, 0, 0, 0, 0, 0, 0, 0, 0, 0, 0, 0, 0, 0, 0, 0, 0, 0, 0, 0, 1, 1, 0, 0, 0, 0, 0, 0, 0, 0, 0, 0, 0, 0, 0, 0, 0, 0, 0, 0, 0, 0, 0, 0, 0, 0] (0.020s)
Set parameter TimeLimit to value 30
Set parameter MIPGap to value 0.0001
Set parameter MIPFocus to value 0
Set parameter NonConvex to value 2
Set parameter MIPGap to value 0.0001
Set parameter DualReductions to value 0
Set parameter OptimalityTarget to value 1
Set parameter MIPFocus to value 0
Set parameter TimeLimit to value 30
Gurobi Optimizer version 13.0.0 build v13.0.0rc1 (win64 - Windows 10.0 (19045.2))

CPU model: AMD Ryzen 9 5900X 12-Core Processor, instruction set [SSE2|AVX|AVX2]
Thread count: 12 physical cores, 24 logical processors, using up to 24 threads

Non-default parameters:
TimeLimit  30
OptimalityTarget  1
DualReductions  0
NonConvex  2

Optimize a model with 4468 rows, 8955 columns and 21563 nonzeros (Max)
Model fingerprint: 0x8a765678
Model has 1606 linear objective coefficients
Model has 1520 quadratic constraints
Coefficient statistics:
  Matrix range     [3e-01, 1e+01]
  QMatrix range    [1e+00, 1e+00]
  QLMatrix range   [1e+00, 1e+00]
  Objective range  [1e+00, 2e+00]
  Bounds range     [1e+00, 1e+01]
  RHS range        [1e-01, 1e+00]

Continuous model is non-convex -- solving with NL barrier

Presolve removed 1520 rows and 1520 columns
Presolve time: 0.00s
Presolved: 2948 rows, 7435 columns, 13963 nonzeros
Presolved model has 1520 quadratic constraint(s)
Ordering time: 0.01s

NL barrier statistics:
  Hessian NZ  : 1.520e+03
  Jacobian NZ : 2.156e+04
  Factor NZ   : 1.396e+05
  Factor Ops  : 2.736e+06
  Threads     : 1

                           Residuals
Iter     Objective      Primal     Dual      Compl     Step     Time
   0  -1.20415319e+04  3.30e+04  1.52e+03  5.02e+02  0.00e+00     0s
   1  -1.25362899e+04  2.37e+04  1.28e+03  4.31e+02  2.80e-01     0s
   2  -1.30693419e+04  1.62e+04  1.01e+03  3.58e+02  3.19e-01     0s
   3  -1.32240312e+04  1.44e+04  5.53e+02  1.49e+02  1.10e-01     0s
   4  -1.37040256e+04  9.24e+03  3.30e+02  7.82e+01  3.58e-01     0s
   5  -1.37849953e+04  4.97e+03  1.56e+02  2.96e+01  4.63e-01     0s
   6  -1.25227830e+04  2.22e+03  4.90e+01  7.58e+00  5.53e-01     0s
   7  -8.39606644e+03  3.16e+02  6.05e+00  1.72e+00  8.57e-01     0s
   8  -5.59935781e+03  9.59e+00  2.28e+00  1.21e+00  9.70e-01     0s
   9  -5.62705985e+03  9.65e-05  1.39e+00  1.13e+00  1.00e+00     0s
  10  -5.57217786e+03  5.93e-05  1.02e+00  1.09e+00  4.02e-01     0s
  11  -5.55626784e+03  4.34e-05  1.79e-03  1.00e+00  2.70e-01     0s
  12  -5.52443308e+03  1.24e-06  6.71e-05  1.00e+00  1.00e+00     0s
  13  -5.52050986e+03  2.67e-11  1.23e-07  1.00e+00  1.00e+00     0s
  14  -5.52062831e+03  8.79e-13  2.41e-09  1.00e+00  1.00e+00     0s
  15  -2.70204173e+03  5.44e-06  2.10e-02  5.69e-01  7.87e-01     0s
  16  -1.95418118e+03  5.31e-06  1.16e-02  3.86e-01  3.98e-01     0s
  17  -1.32267945e+03  1.31e-05  3.42e-02  2.46e-01  5.26e-01     0s
  18  -8.70252229e+02  3.01e-05  2.39e-02  1.77e-01  7.90e-01     0s
  19  -7.61217965e+02  3.27e-05  4.74e-03  1.50e-01  1.00e+00     0s
  20  -7.62351519e+02  2.18e-06  1.71e-04  1.50e-01  1.00e+00     0s
  21  -7.62383708e+02  4.45e-10  2.31e-06  1.50e-01  1.00e+00     0s
  22  -3.65451354e+02  4.43e-05  1.54e-02  1.00e-01  5.16e-01     0s
  23  -2.32736111e+02  7.37e-05  1.16e-02  6.19e-02  4.11e-01     0s
  24  -1.59390248e+02  1.17e-04  2.30e-02  3.54e-02  4.44e-01     0s
  25  -1.15860212e+02  5.96e-03  3.35e-02  2.83e-02  5.30e-01     0s
  26  -8.08555516e+01  8.08e-04  1.82e-02  2.25e-02  1.00e+00     0s
  27  -8.20274182e+01  7.23e-05  4.73e-04  2.25e-02  1.00e+00     0s
  28  -8.20336555e+01  8.64e-07  4.94e-05  2.25e-02  1.00e+00     0s
  29  -3.52604674e+01  2.25e-03  1.57e-01  1.29e-02  5.82e-01     0s
  30  -1.13943394e+01  4.57e-04  5.44e-02  3.62e-03  8.37e-01     0s
  31  -7.93771893e+00  3.09e-04  2.41e-03  3.38e-03  1.00e+00     0s
  32  -7.93738358e+00  2.75e-06  3.06e-05  3.37e-03  1.00e+00     0s
  33   1.17190210e+00  9.27e-04  7.73e-03  6.80e-04  8.47e-01     0s
  34   2.91586415e+00  4.27e-03  1.02e-01  5.15e-04  8.20e-01     0s
  35   3.36179731e+00  2.60e-04  1.87e-03  3.46e-04  1.00e+00     0s
  36   3.36403523e+00  4.57e-07  8.27e-06  3.46e-04  1.00e+00     0s
  37   3.36401898e+00  1.36e-10  5.91e-10  3.46e-04  1.00e+00     0s
  38   4.34577378e+00  8.95e-04  4.92e-03  1.52e-04  5.94e-01     0s
  39   4.48387646e+00  7.43e-04  2.34e-02  1.07e-04  1.88e-01     0s
  40   4.52319897e+00  6.83e-04  1.48e-02  5.16e-05  8.23e-02     0s
  41   4.67449752e+00  4.65e-04  3.43e-02  3.15e-05  3.18e-01     0s
  42   4.85545717e+00  1.19e-04  1.30e-02  1.93e-05  7.45e-01     0s
  43   4.95622657e+00  5.60e-05  4.28e-05  1.43e-05  1.00e+00     0s
  44   4.95290825e+00  6.68e-07  1.67e-04  1.43e-05  9.59e-01     0s
  45   4.95243050e+00  9.87e-09  1.76e-07  1.43e-05  1.00e+00     0s
  46   4.95242744e+00  1.29e-10  3.53e-10  1.43e-05  1.00e+00     0s
  47   4.95242758e+00  1.00e-11  1.33e-10  1.43e-05  1.00e+00     0s
  48   4.95242760e+00  1.40e-13  1.94e-12  1.43e-05  1.00e+00     0s
  49   5.01678739e+00  7.13e-06  2.66e-03  2.91e-06  9.52e-01     0s
  50   5.02143151e+00  5.52e-08  1.10e-08  1.65e-07  1.00e+00     0s
  51   5.02143079e+00  1.21e-11  1.35e-11  1.65e-07  1.00e+00     0s
  52   5.02224467e+00  1.30e-09  2.46e-09  1.00e-09  1.00e+00     0s

NL barrier solved model in 52 iterations and 0.23 seconds (0.31 work units)
First-order optimal solution
Solution objective 5.022244668760e+00

User-callback calls 141, time in user-callback 0.00 sec
  Sub: Z₀=5.022245 [LOCAL], α=[0.000,0.000,0.000,0.000,0.000,0.000,0.000,0.000,0.000,0.000,0.000,0.000,0.000,0.000,0.000,0.000,0.000,0.000,0.000,0.000,0.000,0.000,0.000,0.000,0.000,0.000,0.000,0.000,0.000,0.000,0.000,0.000,0.000,0.000,0.000,0.000,0.000,0.000,0.000,0.000,0.000,0.000,0.000,0.000,0.000,0.000,0.000,0.000,0.000,0.000,0.767,0.623,0.000,0.000,0.000,0.000,0.000,0.000,0.000,0.000,0.000,0.000,0.000,0.000,0.000,0.000,0.000,0.000,0.000,0.000,0.000,0.000,0.000,0.000,0.000,0.000]
  Iter 1: LB=2.255525  UB=Inf  gap=NaN
  Cut: intercept=-307.133276, π_x_range=[-215.8994, 156.5875]
  [ρ-diag] φ̂U=1.00, φ̃U=2.00, λU=2.00
    π_L range=[-67.8836, 46.5875], |π_L|_∞=67.8836
    π_F range=[-134.6824, 96.4825], |π_F|_∞=134.6824
    π_ψ range=[-13.3333, 15.0833], |π_ψ|_∞=15.0833
    ρ̂1: [0.0000, 7.6866], ρ̂3: [0.0000, 5.0000]
    ρ̃1: [0.0000, 6.7706], ρ̃3: [0.0000, 4.9372]
    ρ⁰1: [0.0000, 6.6667], ρ⁰3: [0.0000, 7.5417]
  [φ-diag] φ̂ actual: [-0.0000, 1.0000], φ̂U=1.00
  [φ-diag] φ̃ actual: [-0.0000, 2.0000], φ̃U=2.00
  Mini-Benders[1] (mw): LB=3.521893, Z₀(α*)=7.098494, intercept=6.110806
  Mini-Benders[2] (mw): LB=4.535433, Z₀(α*)=6.936060, intercept=4.411109
  Mini-Benders[3] (mw): LB=4.722522, Z₀(α*)=7.104797, intercept=5.697393
  Mini-Benders[4] (mw): LB=4.941300, Z₀(α*)=7.033807, intercept=4.723569
  Mini-Benders[5] (mw): LB=5.022245, Z₀(α*)=5.022250, intercept=5.697393
Set parameter NonConvex to value 2
Set parameter DualReductions to value 0
Set parameter LogFile to value "global_miqcp.log"
Gurobi Optimizer version 13.0.0 build v13.0.0rc1 (win64 - Windows 10.0 (19045.2))

CPU model: AMD Ryzen 9 5900X 12-Core Processor, instruction set [SSE2|AVX|AVX2]
Thread count: 12 physical cores, 24 logical processors, using up to 24 threads

Non-default parameters:
DualReductions  0
NonConvex  2

Optimize a model with 4468 rows, 8955 columns and 21563 nonzeros (Max)
Model fingerprint: 0x6abde730
Model has 1606 linear objective coefficients
Model has 1520 quadratic constraints
Coefficient statistics:
  Matrix range     [3e-01, 1e+01]
  QMatrix range    [1e+00, 1e+00]
  QLMatrix range   [1e+00, 1e+00]
  Objective range  [1e+00, 2e+00]
  Bounds range     [1e-01, 1e+00]
  RHS range        [1e-01, 1e+00]
Presolve removed 52 rows and 1084 columns
Presolve time: 0.00s
Presolved: 4872 rows, 7871 columns, 18451 nonzeros
Ordering time: 0.00s

Barrier statistics:
 Free vars  : 220
 AA' NZ     : 1.641e+04
 Factor NZ  : 1.076e+05 (roughly 6 MB of memory)
 Factor Ops : 6.358e+06 (less than 1 second per iteration)
 Threads    : 12

                  Objective                Residual
Iter       Primal          Dual         Primal    Dual     Compl     Time
   0  -2.30460704e+04 -0.00000000e+00  1.45e+03 1.00e+00  5.80e+01     0s
   1  -2.75884917e+04  7.85798923e+02  4.55e+02 4.96e+00  2.99e+01     0s
   2  -2.36804301e+04  5.93227186e+02  3.90e+01 8.51e-01  5.98e+00     0s
   3  -8.00309701e+03  4.37485786e+02  1.21e+00 1.45e-01  1.16e+00     0s
   4  -9.62377267e+02  2.19048733e+02  1.08e-01 2.18e-02  1.52e-01     0s
   5  -2.42503501e+02  6.78166902e+01  2.66e-02 3.52e-03  3.50e-02     0s
   6  -8.43952402e+01  2.07568325e+01  8.92e-03 5.08e-04  1.07e-02     0s
   7  -1.49109370e+01  7.05409348e+00  1.88e-03 2.88e-05  1.99e-03     0s
   8   4.50280173e+00  5.10321270e+00  3.54e-05 4.21e-07  5.33e-05     0s
   9   5.02115280e+00  5.02397070e+00  1.71e-08 5.25e-09  3.05e-07     0s
  10   5.02224830e+00  5.02225031e+00  3.39e-11 2.60e-12  1.89e-10     0s
  11   5.02224974e+00  5.02224975e+00  1.06e-11 1.11e-14  9.13e-13     0s

Barrier solved model in 11 iterations and 0.03 seconds (0.03 work units)
Optimal objective 5.02224974e+00


User-callback calls 57, time in user-callback 0.00 sec
  α-step: Z₀=5.022250, α=[0.000,0.000,0.000,0.000,0.000,0.000,0.000,0.000,0.000,0.000,0.000,0.000,0.000,0.000,0.000,0.000,0.000,0.000,0.000,0.000,0.000,0.000,0.000,0.000,0.000,0.000,0.000,0.000,0.000,0.000,0.000,0.000,0.000,0.000,0.000,0.000,0.000,0.000,0.000,0.000,0.000,0.000,0.000,0.000,0.000,0.000,0.000,0.000,0.000,0.000,0.771,0.620,0.000,0.000,0.000,0.000,0.000,0.000,0.000,0.000,0.000,0.000,0.000,0.000,0.000,0.000,0.000,0.000,0.000,0.000,0.000,0.000,0.000,0.000,0.000,0.000]
  Alt-Benders[1] (mw): LB=5.022249, Z₀(α*)=5.022250, intercept=5.697392
  Alt-Benders[2] (mw): LB=5.022249, Z₀(α*)=5.022250, intercept=5.697392
  Alt-Benders[3] (mw): LB=5.022249, Z₀(α*)=5.022250, intercept=5.697392
  Alt-Benders[4]: LB stagnated, break
  OMP re-solve: 0.001s

=== True-DRO Benders iter 2 ===
  OMP: t₀=5.022249, UB=Inf, gap=NaN, x=[0, 0, 0, 0, 0, 0, 0, 0, 0, 0, 0, 0, 0, 0, 0, 0, 0, 0, 0, 0, 0, 0, 0, 0, 0, 0, 0, 0, 0, 0, 0, 0, 0, 0, 0, 0, 0, 0, 0, 0, 0, 0, 0, 0, 0, 0, 0, 0, 0, 0, 1, 1, 0, 0, 0, 0, 0, 0, 0, 0, 0, 0, 0, 0, 0, 0, 0, 0, 0, 0, 0, 0, 0, 0, 0, 0] (0.000s)
Set parameter TimeLimit to value 30
Set parameter MIPGap to value 0.0001
Set parameter MIPFocus to value 0
Gurobi Optimizer version 13.0.0 build v13.0.0rc1 (win64 - Windows 10.0 (19045.2))

CPU model: AMD Ryzen 9 5900X 12-Core Processor, instruction set [SSE2|AVX|AVX2]
Thread count: 12 physical cores, 24 logical processors, using up to 24 threads

Non-default parameters:
TimeLimit  30
OptimalityTarget  1
DualReductions  0
NonConvex  2

Optimize a model with 4468 rows, 8955 columns and 21563 nonzeros (Max)
Model fingerprint: 0x8a765678
Model has 1606 linear objective coefficients
Model has 1520 quadratic constraints
Variable types: 8955 continuous, 0 integer (0 binary)
Coefficient statistics:
  Matrix range     [3e-01, 1e+01]
  QMatrix range    [1e+00, 1e+00]
  QLMatrix range   [1e+00, 1e+00]
  Objective range  [1e+00, 2e+00]
  Bounds range     [1e+00, 1e+01]
  RHS range        [1e-01, 1e+00]
Presolve removed 1520 rows and 1520 columns
Presolve time: 0.00s
Presolved: 2948 rows, 7435 columns, 13963 nonzeros
Presolved model has 1520 quadratic constraint(s)

Solving NLP to local optimality

Ordering time: 0.02s

NL barrier statistics:
  Hessian NZ  : 1.520e+03
  Jacobian NZ : 2.156e+04
  Factor NZ   : 1.396e+05
  Factor Ops  : 2.736e+06
  Threads     : 1

                           Residuals
Iter     Objective      Primal     Dual      Compl     Step     Time
   0  -1.20415319e+04  3.30e+04  1.52e+03  5.02e+02  0.00e+00     0s
   1  -1.25362899e+04  2.37e+04  1.28e+03  4.31e+02  2.80e-01     0s
   2  -1.30693419e+04  1.62e+04  1.01e+03  3.58e+02  3.19e-01     0s
   3  -1.32240312e+04  1.44e+04  5.53e+02  1.49e+02  1.10e-01     0s
   4  -1.37040256e+04  9.24e+03  3.30e+02  7.82e+01  3.58e-01     0s
   5  -1.37849953e+04  4.97e+03  1.56e+02  2.96e+01  4.63e-01     0s
   6  -1.25227830e+04  2.22e+03  4.90e+01  7.58e+00  5.53e-01     0s
   7  -8.39606644e+03  3.16e+02  6.05e+00  1.72e+00  8.57e-01     0s
   8  -5.59935781e+03  9.59e+00  2.28e+00  1.21e+00  9.70e-01     0s
   9  -5.62705985e+03  9.65e-05  1.39e+00  1.13e+00  1.00e+00     0s
  10  -5.57217786e+03  5.93e-05  1.02e+00  1.09e+00  4.02e-01     0s
  11  -5.55626784e+03  4.34e-05  1.79e-03  1.00e+00  2.70e-01     0s
  12  -5.52443308e+03  1.24e-06  6.71e-05  1.00e+00  1.00e+00     0s
  13  -5.52050986e+03  2.67e-11  1.23e-07  1.00e+00  1.00e+00     0s
  14  -5.52062831e+03  8.79e-13  2.41e-09  1.00e+00  1.00e+00     0s
  15  -2.70204173e+03  5.44e-06  2.10e-02  5.69e-01  7.87e-01     0s
  16  -1.95418118e+03  5.31e-06  1.16e-02  3.86e-01  3.98e-01     0s
  17  -1.32267945e+03  1.31e-05  3.42e-02  2.46e-01  5.26e-01     0s
  18  -8.70252229e+02  3.01e-05  2.39e-02  1.77e-01  7.90e-01     0s
  19  -7.61217965e+02  3.27e-05  4.74e-03  1.50e-01  1.00e+00     0s
  20  -7.62351519e+02  2.18e-06  1.71e-04  1.50e-01  1.00e+00     0s
  21  -7.62383708e+02  4.45e-10  2.31e-06  1.50e-01  1.00e+00     0s
  22  -3.65451354e+02  4.43e-05  1.54e-02  1.00e-01  5.16e-01     0s
  23  -2.32736111e+02  7.37e-05  1.16e-02  6.19e-02  4.11e-01     0s
  24  -1.59390248e+02  1.17e-04  2.30e-02  3.54e-02  4.44e-01     0s
  25  -1.15860212e+02  5.96e-03  3.35e-02  2.83e-02  5.30e-01     0s
  26  -8.08555516e+01  8.08e-04  1.82e-02  2.25e-02  1.00e+00     0s
  27  -8.20274182e+01  7.23e-05  4.73e-04  2.25e-02  1.00e+00     0s
  28  -8.20336555e+01  8.64e-07  4.94e-05  2.25e-02  1.00e+00     0s
  29  -3.52604674e+01  2.25e-03  1.57e-01  1.29e-02  5.82e-01     0s
  30  -1.13943394e+01  4.57e-04  5.44e-02  3.62e-03  8.37e-01     0s
  31  -7.93771893e+00  3.09e-04  2.41e-03  3.38e-03  1.00e+00     0s
  32  -7.93738358e+00  2.75e-06  3.06e-05  3.37e-03  1.00e+00     0s
  33   1.17190210e+00  9.27e-04  7.73e-03  6.80e-04  8.47e-01     0s
  34   2.91586415e+00  4.27e-03  1.02e-01  5.15e-04  8.20e-01     0s
  35   3.36179731e+00  2.60e-04  1.87e-03  3.46e-04  1.00e+00     0s
  36   3.36403523e+00  4.57e-07  8.27e-06  3.46e-04  1.00e+00     0s
  37   3.36401898e+00  1.36e-10  5.91e-10  3.46e-04  1.00e+00     0s
  38   4.34577378e+00  8.95e-04  4.92e-03  1.52e-04  5.94e-01     0s
  39   4.48387646e+00  7.43e-04  2.34e-02  1.07e-04  1.88e-01     0s
  40   4.52319897e+00  6.83e-04  1.48e-02  5.16e-05  8.23e-02     0s
  41   4.67449752e+00  4.65e-04  3.43e-02  3.15e-05  3.18e-01     0s
  42   4.85545717e+00  1.19e-04  1.30e-02  1.93e-05  7.45e-01     0s
  43   4.95622657e+00  5.60e-05  4.28e-05  1.43e-05  1.00e+00     0s
  44   4.95290825e+00  6.68e-07  1.67e-04  1.43e-05  9.59e-01     0s
  45   4.95243050e+00  9.87e-09  1.76e-07  1.43e-05  1.00e+00     0s
  46   4.95242744e+00  1.29e-10  3.53e-10  1.43e-05  1.00e+00     0s
  47   4.95242758e+00  1.00e-11  1.33e-10  1.43e-05  1.00e+00     0s
  48   4.95242760e+00  1.40e-13  1.94e-12  1.43e-05  1.00e+00     0s
  49   5.01678739e+00  7.13e-06  2.66e-03  2.91e-06  9.52e-01     0s
  50   5.02143151e+00  5.52e-08  1.10e-08  1.65e-07  1.00e+00     0s
  51   5.02143079e+00  1.21e-11  1.35e-11  1.65e-07  1.00e+00     0s
  52   5.02224467e+00  1.30e-09  2.46e-09  1.00e-09  1.00e+00     0s

NL barrier solved model in 52 iterations and 0.23 seconds (0.31 work units)
First-order optimal solution
Solution objective 5.022244668760e+00

User-callback calls 139, time in user-callback 0.00 sec
  Sub: Z₀=5.022245 [LOCAL], α=[0.000,0.000,0.000,0.000,0.000,0.000,0.000,0.000,0.000,0.000,0.000,0.000,0.000,0.000,0.000,0.000,0.000,0.000,0.000,0.000,0.000,0.000,0.000,0.000,0.000,0.000,0.000,0.000,0.000,0.000,0.000,0.000,0.000,0.000,0.000,0.000,0.000,0.000,0.000,0.000,0.000,0.000,0.000,0.000,0.000,0.000,0.000,0.000,0.000,0.000,0.767,0.623,0.000,0.000,0.000,0.000,0.000,0.000,0.000,0.000,0.000,0.000,0.000,0.000,0.000,0.000,0.000,0.000,0.000,0.000,0.000,0.000,0.000,0.000,0.000,0.000]
  Iter 2: LB=5.022249  UB=Inf  gap=NaN
  Cut: intercept=-307.133276, π_x_range=[-215.8994, 156.5875]
  [ρ-diag] φ̂U=1.00, φ̃U=2.00, λU=2.00
    π_L range=[-67.8836, 46.5875], |π_L|_∞=67.8836
    π_F range=[-134.6824, 96.4825], |π_F|_∞=134.6824
    π_ψ range=[-13.3333, 15.0833], |π_ψ|_∞=15.0833
    ρ̂1: [0.0000, 7.6866], ρ̂3: [0.0000, 5.0000]
    ρ̃1: [0.0000, 6.7706], ρ̃3: [0.0000, 4.9372]
    ρ⁰1: [0.0000, 6.6667], ρ⁰3: [0.0000, 7.5417]
  [φ-diag] φ̂ actual: [0.0000, 1.0000], φ̂U=1.00
  [φ-diag] φ̃ actual: [-0.0000, 0.0000], φ̃U=2.00
  Mini-Benders[1] (mw): LB=5.022249, Z₀(α*)=5.022250, intercept=5.697393
  Mini-Benders[2] (mw): LB=5.022249, Z₀(α*)=5.022250, intercept=5.697393
  Mini-Benders[3]: LB stagnated, break
Gurobi Optimizer version 13.0.0 build v13.0.0rc1 (win64 - Windows 10.0 (19045.2))

CPU model: AMD Ryzen 9 5900X 12-Core Processor, instruction set [SSE2|AVX|AVX2]
Thread count: 12 physical cores, 24 logical processors, using up to 24 threads

Non-default parameters:
DualReductions  0
NonConvex  2

Optimize a model with 4468 rows, 8955 columns and 21563 nonzeros (Max)
Model fingerprint: 0x2a54e7c5
Model has 1606 linear objective coefficients
Model has 1520 quadratic constraints
Coefficient statistics:
  Matrix range     [3e-01, 1e+01]
  QMatrix range    [1e+00, 1e+00]
  QLMatrix range   [1e+00, 1e+00]
  Objective range  [1e+00, 2e+00]
  Bounds range     [1e-01, 1e+00]
  RHS range        [1e-01, 1e+00]
Presolve removed 52 rows and 1084 columns
Presolve time: 0.00s
Presolved: 4872 rows, 7871 columns, 18451 nonzeros
Ordering time: 0.01s

Barrier statistics:
 Free vars  : 220
 AA' NZ     : 1.641e+04
 Factor NZ  : 1.076e+05 (roughly 6 MB of memory)
 Factor Ops : 6.358e+06 (less than 1 second per iteration)
 Threads    : 12

                  Objective                Residual
Iter       Primal          Dual         Primal    Dual     Compl     Time
   0  -2.30460704e+04 -0.00000000e+00  1.45e+03 1.00e+00  5.80e+01     0s
   1  -2.75884917e+04  7.85798923e+02  4.55e+02 4.96e+00  2.99e+01     0s
   2  -2.36804301e+04  5.93227186e+02  3.90e+01 8.51e-01  5.98e+00     0s
   3  -8.00309701e+03  4.37485786e+02  1.21e+00 1.45e-01  1.16e+00     0s
   4  -9.62377267e+02  2.19048733e+02  1.08e-01 2.18e-02  1.52e-01     0s
   5  -2.42503501e+02  6.78166902e+01  2.66e-02 3.52e-03  3.50e-02     0s
   6  -8.43952402e+01  2.07568325e+01  8.92e-03 5.08e-04  1.07e-02     0s
   7  -1.49109370e+01  7.05409348e+00  1.88e-03 2.88e-05  1.99e-03     0s
   8   4.50280173e+00  5.10321270e+00  3.54e-05 4.21e-07  5.33e-05     0s
   9   5.02115280e+00  5.02397070e+00  1.70e-08 5.25e-09  3.05e-07     0s
  10   5.02224830e+00  5.02225031e+00  3.41e-11 2.60e-12  1.89e-10     0s
  11   5.02224974e+00  5.02224975e+00  1.29e-11 1.14e-14  9.13e-13     0s

Barrier solved model in 11 iterations and 0.03 seconds (0.03 work units)
Optimal objective 5.02224974e+00


User-callback calls 53, time in user-callback 0.00 sec
  α-step: Z₀=5.022250, α=[0.000,0.000,0.000,0.000,0.000,0.000,0.000,0.000,0.000,0.000,0.000,0.000,0.000,0.000,0.000,0.000,0.000,0.000,0.000,0.000,0.000,0.000,0.000,0.000,0.000,0.000,0.000,0.000,0.000,0.000,0.000,0.000,0.000,0.000,0.000,0.000,0.000,0.000,0.000,0.000,0.000,0.000,0.000,0.000,0.000,0.000,0.000,0.000,0.000,0.000,0.771,0.620,0.000,0.000,0.000,0.000,0.000,0.000,0.000,0.000,0.000,0.000,0.000,0.000,0.000,0.000,0.000,0.000,0.000,0.000,0.000,0.000,0.000,0.000,0.000,0.000]
  Alt-Benders[1] (mw): LB=5.022249, Z₀(α*)=5.022250, intercept=5.697394
  Alt-Benders[2] (mw): LB=5.022249, Z₀(α*)=5.022250, intercept=5.697394
  Alt-Benders[3]: LB stagnated, break
  OMP re-solve: 0.001s

=== True-DRO Benders iter 3 ===
  OMP: t₀=5.022249, UB=Inf, gap=NaN, x=[0, 0, 0, 0, 0, 0, 0, 0, 0, 0, 0, 0, 0, 0, 0, 0, 0, 0, 0, 0, 0, 0, 0, 0, 0, 0, 0, 0, 0, 0, 0, 0, 0, 0, 0, 0, 0, 0, 0, 0, 0, 0, 0, 0, 0, 0, 0, 0, 0, 0, 1, 1, 0, 0, 0, 0, 0, 0, 0, 0, 0, 0, 0, 0, 0, 0, 0, 0, 0, 0, 0, 0, 0, 0, 0, 0] (0.001s)
Set parameter TimeLimit to value 30
Set parameter MIPGap to value 0.0001
Set parameter MIPFocus to value 0
Gurobi Optimizer version 13.0.0 build v13.0.0rc1 (win64 - Windows 10.0 (19045.2))

CPU model: AMD Ryzen 9 5900X 12-Core Processor, instruction set [SSE2|AVX|AVX2]
Thread count: 12 physical cores, 24 logical processors, using up to 24 threads

Non-default parameters:
TimeLimit  30
DualReductions  0
NonConvex  2

Optimize a model with 4468 rows, 8955 columns and 21563 nonzeros (Max)
Model fingerprint: 0x99629ba2
Model has 1606 linear objective coefficients
Model has 1520 quadratic constraints
Coefficient statistics:
  Matrix range     [3e-01, 1e+01]
  QMatrix range    [1e+00, 1e+00]
  QLMatrix range   [1e+00, 1e+00]
  Objective range  [1e+00, 2e+00]
  Bounds range     [1e+00, 1e+00]
  RHS range        [1e-01, 1e+00]

Continuous model is non-convex -- solving as a MIP

Presolve time: 0.01s
Presolved: 10548 rows, 8956 columns, 33723 nonzeros
Presolved model has 1520 bilinear constraint(s)
Variable types: 8956 continuous, 0 integer (0 binary)
Found heuristic solution: objective 5.0222455

Root relaxation: objective 7.409789e+00, 3727 iterations, 0.07 seconds (0.14 work units)

    Nodes    |    Current Node    |     Objective Bounds      |     Work
 Expl Unexpl |  Obj  Depth IntInf | Incumbent    BestBd   Gap | It/Node Time

     0     0    7.40979    0   40    5.02225    7.40979  47.5%     -    0s
     0     0          -    0         5.02225    5.02225  0.00%     -    0s

Cutting planes:
  RLT: 26

Explored 1 nodes (3887 simplex iterations) in 0.30 seconds (0.39 work units)
Thread count was 24 (of 24 available processors)

Solution count 1: 5.02225 

Optimal solution found (tolerance 1.00e-04)
Best objective 5.022245512379e+00, best bound 5.022249752037e+00, gap 0.0001%

User-callback calls 91, time in user-callback 0.00 sec
  Sub: Z₀=5.022246, α=[0.000,0.000,0.000,0.000,0.000,0.000,0.000,0.000,0.000,0.000,0.000,0.000,0.000,0.000,0.000,0.000,0.000,0.000,0.000,0.000,0.000,0.000,0.000,0.000,0.000,0.000,0.000,0.000,0.000,0.000,0.000,0.000,0.000,0.000,0.000,0.000,0.000,0.000,0.000,0.000,0.000,0.000,0.000,0.000,0.000,0.000,0.000,0.000,0.000,0.000,0.692,0.698,0.000,0.000,0.000,0.000,0.000,0.000,0.000,0.000,0.000,0.000,0.000,0.000,0.000,0.000,0.000,0.000,0.000,0.000,0.000,0.000,0.000,0.000,0.000,0.000]
  Iter 3: LB=5.022249  UB=5.022246  gap=6.55e-07
True-DRO Benders converged at iter 3 (gap=6.55e-07)
  Wall time: 3.58 sec
  OMP  time: mean=0.076s, median=0.087s, max=0.202s
  Sub  time (exact): mean=0.321s, median=0.321s, q90=0.321s, max=0.321s (n=1/3)

----------------------------------------
True-DRO: status=Optimal, Z₀=5.022246, iters=3, time=3.58s
  LB=5.022249, UB=5.022246, gap=6.55e-07
  x* = [0, 0, 0, 0, 0, 0, 0, 0, 0, 0, 0, 0, 0, 0, 0, 0, 0, 0, 0, 0, 0, 0, 0, 0, 0, 0, 0, 0, 0, 0, 0, 0, 0, 0, 0, 0, 0, 0, 0, 0, 0, 0, 0, 0, 0, 0, 0, 0, 0, 0, 1, 1, 0, 0, 0, 0, 0, 0, 0, 0, 0, 0, 0, 0, 0, 0, 0, 0, 0, 0, 0, 0, 0, 0, 0, 0]
  α* = [0.000, 0.000, 0.000, 0.000, 0.000, 0.000, 0.000, 0.000, 0.000, 0.000, 0.000, 0.000, 0.000, 0.000, 0.000, 0.000, 0.000, 0.000, 0.000, 0.000, 0.000, 0.000, 0.000, 0.000, 0.000, 0.000, 0.000, 0.000, 0.000, 0.000, 0.000, 0.000, 0.000, 0.000, 0.000, 0.000, 0.000, 0.000, 0.000, 0.000, 0.000, 0.000, 0.000, 0.000, 0.000, 0.000, 0.000, 0.000, 0.000, 0.000, 0.692, 0.698, 0.000, 0.000, 0.000, 0.000, 0.000, 0.000, 0.000, 0.000, 0.000, 0.000, 0.000, 0.000, 0.000, 0.000, 0.000, 0.000, 0.000, 0.000, 0.000, 0.000, 0.000, 0.000, 0.000, 0.000]
  Profile saved → C:\Users\user\robust_bilevel_network_games\true_dro\profiles.jls (14 entries)
============================================================
Primal Recovery: x* → α* → (h*, λ*, ψ⁰*)
============================================================
  x* = [0, 0, 0, 0, 0, 0, 0, 0, 0, 0, 0, 0, 0, 0, 0, 0, 0, 0, 0, 0, 0, 0, 0, 0, 0, 0, 0, 0, 0, 0, 0, 0, 0, 0, 0, 0, 0, 0, 0, 0, 0, 0, 0, 0, 0, 0, 0, 0, 0, 0, 1, 1, 0, 0, 0, 0, 0, 0, 0, 0, 0, 0, 0, 0, 0, 0, 0, 0, 0, 0, 0, 0, 0, 0, 0, 0]
  α* = [0.0000, 0.0000, 0.0000, 0.0000, 0.0000, 0.0000, 0.0000, 0.0000, 0.0000, 0.0000, 0.0000, 0.0000, 0.0000, 0.0000, 0.0000, 0.0000, 0.0000, 0.0000, 0.0000, 0.0000, 0.0000, 0.0000, 0.0000, 0.0000, 0.0000, 0.0000, 0.0000, 0.0000, 0.0000, 0.0000, 0.0000, 0.0000, 0.0000, 0.0000, 0.0000, 0.0000, 0.0000, 0.0000, 0.0000, 0.0000, 0.0000, 0.0000, 0.0000, 0.0000, 0.0000, 0.0000, 0.0000, 0.0000, 0.0000, 0.0000, 0.6921, 0.6984, 0.0000, 0.0000, 0.0000, 0.0000, 0.0000, 0.0000, 0.0000, 0.0000, 0.0000, 0.0000, 0.0000, 0.0000, 0.0000, 0.0000, 0.0000, 0.0000, 0.0000, 0.0000, 0.0000, 0.0000, 0.0000, 0.0000, 0.0000, 0.0000]

  Piece-F obj = 0.000000
  λ*   = -0.000000
  Σh*  = 0.000000  (budget: λw = -0.000000)

  h* (nonzero arcs):
  ψ⁰* (nonzero arcs):

  Per-scenario sink flow ỹ_ts:
    s=1: ỹ_ts=-0.000000
    s=2: ỹ_ts=-0.000000
    s=3: ỹ_ts=-0.000000
    s=4: ỹ_ts=-0.000000
    s=5: ỹ_ts=-0.000000
    s=6: ỹ_ts=-0.000000
    s=7: ỹ_ts=-0.000000
    s=8: ỹ_ts=-0.000000
    s=9: ỹ_ts=-0.000000
    s=10: ỹ_ts=-0.000000

  Z₀(Benders) = 5.022246
  Piece-F(recovered) = 0.000000

Finished: 2026-04-16T18:45:25.811
